
Gurobi 11.0.0 (linux64) logging started Tue Sep 17 01:38:33 2024

Set parameter LogFile to value "gurobi.log"
Set parameter InfUnbdInfo to value 1
Gurobi Optimizer version 11.0.0 build v11.0.0rc2 (linux64 - "Ubuntu 22.04.4 LTS")

CPU model: AMD EPYC 7V13 64-Core Processor, instruction set [SSE2|AVX|AVX2]
Thread count: 128 physical cores, 128 logical processors, using up to 32 threads

Optimize a model with 55 rows, 668 columns and 155 nonzeros
Model fingerprint: 0xe17194df
Model has 676 quadratic constraints
Model has 3 general constraints
Variable types: 184 continuous, 484 integer (0 binary)
Coefficient statistics:
  Matrix range     [1e+00, 4e+04]
  QMatrix range    [1e+00, 4e+04]
  QLMatrix range   [1e+00, 4e+04]
  Objective range  [1e+00, 1e+00]
  Bounds range     [1e+00, 3e+11]
  RHS range        [1e+00, 1e+00]
  QRHS range       [1e+00, 2e+06]
Warning: Model contains large bounds
         Consider reformulating model or setting NumericFocus parameter
         to avoid numerical issues.
Using branch priorities (all 0).
Presolve added 75 rows and 5 columns
Presolve time: 0.01s
Presolved: 2293 rows, 960 columns, 6870 nonzeros
Presolved model has 24 SOS constraint(s)
Presolved model has 384 bilinear constraint(s)
Warning: Model contains variables with very large bounds participating
         in product terms.
         Presolve was not able to compute smaller bounds for these variables.
         Consider bounding these variables or reformulating the model.


Solving non-convex MIQCP

Variable types: 354 continuous, 606 integer (231 binary)

Root relaxation: objective 5.404711e+04, 333 iterations, 0.01 seconds (0.01 work units)

    Nodes    |    Current Node    |     Objective Bounds      |     Work
 Expl Unexpl |  Obj  Depth IntInf | Incumbent    BestBd   Gap | It/Node Time

     0     0 54047.1063    0  149          - 54047.1063      -     -    0s
     0     0 54049.0844    0  149          - 54049.0844      -     -    0s
H    0     0                    7.919799e+10 54049.0844   100%     -    0s
H    0     0                    3.960720e+10 54049.0844   100%     -    0s
     0     0 54607.6140    0  198 3.9607e+10 54607.6140   100%     -    0s
H    0     0                    3.959157e+10 54607.6140   100%     -    0s
     0     0 54611.6633    0  230 3.9592e+10 54611.6633   100%     -    0s
H    0     0                    1.158519e+07 54611.6633   100%     -    0s
H    0     0                    2646683.0000 54611.6633  97.9%     -    0s
     0     0 54629.0602    0  199 2646683.00 54629.0602  97.9%     -    0s
H    0     0                    1096883.0000 54629.0602  95.0%     -    0s
     0     0 54645.6118    0  180 1096883.00 54645.6118  95.0%     -    0s
     0     0 54674.7472    0  192 1096883.00 54674.7472  95.0%     -    0s
     0     0 54676.0932    0  197 1096883.00 54676.0932  95.0%     -    0s
     0     0 54694.3519    0  205 1096883.00 54694.3519  95.0%     -    0s
     0     0 54698.4013    0  190 1096883.00 54698.4013  95.0%     -    0s
     0     0 54706.4319    0  216 1096883.00 54706.4319  95.0%     -    0s
     0     0 54706.9410    0  205 1096883.00 54706.9410  95.0%     -    0s
     0     0 54883.4564    0  196 1096883.00 54883.4564  95.0%     -    0s
H    0     0                    1079033.0000 54883.4564  94.9%     -    0s
     0     0 55035.1061    0  224 1079033.00 55035.1061  94.9%     -    0s
     0     0 55191.2390    0  182 1079033.00 55191.2390  94.9%     -    0s
H    0     0                    246312.62097 55191.2390  77.6%     -    0s
     0     0 55191.2945    0  183 246312.621 55191.2945  77.6%     -    0s
     0     0 55337.1980    0  167 246312.621 55337.1980  77.5%     -    0s
     0     0 55471.8221    0  171 246312.621 55471.8221  77.5%     -    0s
     0     0 55880.5579    0  168 246312.621 55880.5579  77.3%     -    0s
H    0     0                    221344.19058 55880.5579  74.8%     -    0s
H    0     0                    204622.72591 55880.5579  72.7%     -    0s
     0     0 55991.1924    0  169 204622.726 55991.1924  72.6%     -    0s
     0     0 56190.7237    0  200 204622.726 56190.7237  72.5%     -    0s
     0     0 56415.1817    0  200 204622.726 56415.1817  72.4%     -    0s
H    0     0                    193698.72355 56415.1817  70.9%     -    0s
     0     0 56415.1817    0  117 193698.724 56415.1817  70.9%     -    0s
H    0     0                    173748.72355 56415.1817  67.5%     -    0s
     0     0 56415.1817    0  218 173748.724 56415.1817  67.5%     -    0s
     0     0 56415.1817    0  189 173748.724 56415.1817  67.5%     -    0s
     0     0 56415.1817    0  164 173748.724 56415.1817  67.5%     -    0s
     0     0 56415.1817    0  197 173748.724 56415.1817  67.5%     -    0s
     0     0 56415.1817    0  179 173748.724 56415.1817  67.5%     -    0s
     0     0 56415.1817    0  203 173748.724 56415.1817  67.5%     -    0s
     0     0 56415.1817    0  180 173748.724 56415.1817  67.5%     -    0s
     0     0 56415.1817    0  178 173748.724 56415.1817  67.5%     -    0s
     0     0 56415.1817    0  166 173748.724 56415.1817  67.5%     -    0s
     0     0 56415.1817    0  170 173748.724 56415.1817  67.5%     -    0s
     0     0 56415.1817    0  164 173748.724 56415.1817  67.5%     -    0s
     0     0 58571.2788    0  174 173748.724 58571.2788  66.3%     -    0s
     0     0 65651.3763    0  182 173748.724 65651.3763  62.2%     -    0s
     0     0 72946.9715    0  179 173748.724 72946.9715  58.0%     -    0s
     0     0 73148.8045    0  177 173748.724 73148.8045  57.9%     -    0s
     0     0 73163.7504    0  184 173748.724 73163.7504  57.9%     -    0s
     0     0 73986.4496    0  204 173748.724 73986.4496  57.4%     -    0s
     0     0 73986.5929    0  197 173748.724 73986.5929  57.4%     -    0s
     0     0 74178.4000    0  181 173748.724 74178.4000  57.3%     -    1s
     0     0 74182.0353    0  188 173748.724 74182.0353  57.3%     -    1s
     0     0 74206.3461    0  185 173748.724 74206.3461  57.3%     -    1s
     0     0 74207.1566    0  197 173748.724 74207.1566  57.3%     -    1s
     0     0 74207.5234    0  181 173748.724 74207.5234  57.3%     -    1s
     0     0 74207.5348    0  183 173748.724 74207.5348  57.3%     -    1s
H    0     0                    166609.19058 74207.5348  55.5%     -    1s
     0     0 74208.2195    0  219 166609.191 74208.2195  55.5%     -    1s
     0     0 74208.2195    0  217 166609.191 74208.2195  55.5%     -    1s
     0     0 74219.0375    0  220 166609.191 74219.0375  55.5%     -    1s
     0     0 74219.9636    0  211 166609.191 74219.9636  55.5%     -    2s
H    0     0                    156063.72355 74219.9636  52.4%     -    2s
     0     0 74219.9636    0  101 156063.724 74219.9636  52.4%     -    2s
     0     0 74219.9636    0  110 156063.724 74219.9636  52.4%     -    2s
     0     0 74219.9636    0  161 156063.724 74219.9636  52.4%     -    2s
     0     0 74219.9636    0  148 156063.724 74219.9636  52.4%     -    3s
     0     0 74219.9636    0  171 156063.724 74219.9636  52.4%     -    3s
     0     0 74219.9636    0  180 156063.724 74219.9636  52.4%     -    3s
     0     0 74219.9636    0  194 156063.724 74219.9636  52.4%     -    3s
     0     0 74219.9636    0  196 156063.724 74219.9636  52.4%     -    3s
     0     0 74219.9636    0  190 156063.724 74219.9636  52.4%     -    3s
     0     0 74219.9636    0  204 156063.724 74219.9636  52.4%     -    3s
     0     0 74219.9636    0  201 156063.724 74219.9636  52.4%     -    3s
     0     0 74219.9636    0  200 156063.724 74219.9636  52.4%     -    3s
H    0     0                    146872.72591 74219.9636  49.5%     -    3s
     0     0 74219.9636    0  192 146872.726 74219.9636  49.5%     -    3s
     0     0 74219.9636    0  192 146872.726 74219.9636  49.5%     -    4s
     0     0 74219.9636    0  192 146872.726 74219.9636  49.5%     -    4s
     0     0 74219.9636    0  190 146872.726 74219.9636  49.5%     -    4s
     0     0 74219.9636    0  191 146872.726 74219.9636  49.5%     -    4s
     0     0 74219.9636    0  191 146872.726 74219.9636  49.5%     -    4s
     0     0 74219.9636    0  184 146872.726 74219.9636  49.5%     -    4s
     0     2 74219.9636    0  182 146872.726 74219.9636  49.5%     -    5s
H   39    53                    146607.72591 74219.9636  49.4%  31.0    5s
H  479   421                    144853.51845 74219.9636  48.8%  16.7    6s
H  504   421                    136963.45824 74219.9636  45.8%  16.3    6s
H  520   421                    135728.72355 74219.9636  45.3%  16.1    6s
H  667   466                    133623.96742 74219.9636  44.5%  16.1    6s
* 1469   923              42    114123.98371 74219.9636  35.0%  12.8    7s
H 2687  1870                    114068.98371 74413.1454  34.8%  11.7    7s
* 3050  2060              50    110908.75464 74413.1454  32.9%  11.0    8s
H 3635  1920                    107890.34999 74429.6059  31.0%  10.2    8s
H 3651  1920                    107192.52094 74429.6059  30.6%  10.2    8s
H 4639  1905                    106922.52094 74450.1603  30.4%   9.9   10s
H 4650  1818                    105800.00000 74450.1603  29.6%  10.0   11s
H 5074  1794                    105379.19058 84597.7339  19.7%  10.5   14s
H 5575  1770                    104833.27970 84605.0627  19.3%  10.7   15s
* 6019  1729              70    102817.54737 84605.0627  17.7%  10.5   15s
H 6806  1506                    102779.54737 84698.1626  17.6%  10.5   15s
H11135  1492                    102689.54737 87172.3778  15.1%  11.2   17s
*14946  1099              66    102518.53415 91627.7658  10.6%  11.6   18s
H15065  1093                    102348.53414 91627.7658  10.5%  11.7   20s
H15085  1093                    102221.81527 91627.7658  10.4%  11.7   20s
H15127  1093                    102190.00814 91627.7658  10.3%  11.7   20s

Cutting planes:
  Implied bound: 3
  MIR: 17
  Flow cover: 1
  RLT: 1

Explored 18349 nodes (220780 simplex iterations) in 22.37 seconds (2.48 work units)
Thread count was 32 (of 128 available processors)

Solution count 10: 102190 102222 102349 ... 105800

Optimal solution found (tolerance 1.00e-10)
Warning: max constraint violation (1.2682e-03) exceeds tolerance
Warning: max general constraint violation (1.2682e-03) exceeds tolerance
  Piecewise linearization of function constraints often causes big violation.
  Try to adjust the settings of the related parameters, such as FuncPieces.
Best objective 1.021900081427e+05, best bound 1.021900081427e+05, gap 0.0000%
